
Gurobi 13.0.1 (linux64) logging started Fri Mar 20 20:05:59 2026

Set parameter LogFile to value "logs/120B_6F_deterministic_2026-03-20_20h04m35s.log"
Set parameter Threads to value 1
Gurobi Optimizer version 13.0.1 build v13.0.1rc0 (linux64 - "Linux Mint 22")

CPU model: 12th Gen Intel(R) Core(TM) i7-12700, instruction set [SSE2|AVX|AVX2]
Thread count: 20 physical cores, 20 logical processors, using up to 1 threads

Non-default parameters:
TimeLimit  3600
SoftMemLimit  10
Threads  1

Optimize a model with 171880 rows, 4392130 columns and 13236647 nonzeros (Max)
Model fingerprint: 0xfae23890
Model has 4302040 linear objective coefficients
Variable types: 36130 continuous, 4356000 integer (4356000 binary)
Coefficient statistics:
  Matrix range     [1e-04, 2e+04]
  Objective range  [1e+01, 3e+03]
  Bounds range     [1e+00, 1e+05]
  RHS range        [1e+00, 1e+05]

Presolve removed 112771 rows and 3482108 columns (presolve time = 5s)...
Presolve removed 112771 rows and 3482108 columns (presolve time = 10s)...
Presolve removed 112771 rows and 3482108 columns (presolve time = 15s)...
Presolve removed 112771 rows and 3482108 columns (presolve time = 20s)...
Presolve removed 112771 rows and 3482108 columns (presolve time = 25s)...
Presolve removed 112771 rows and 3482108 columns (presolve time = 30s)...
Presolve removed 112771 rows and 3482108 columns (presolve time = 35s)...
Presolve removed 112771 rows and 3482108 columns (presolve time = 40s)...
Presolve removed 112771 rows and 3482108 columns (presolve time = 45s)...
Presolve removed 112771 rows and 3482108 columns (presolve time = 50s)...
Presolve removed 112771 rows and 3482108 columns (presolve time = 55s)...
Presolve removed 112771 rows and 3482108 columns (presolve time = 60s)...
Presolve removed 112771 rows and 3482108 columns (presolve time = 65s)...
Presolve removed 112771 rows and 3482108 columns (presolve time = 70s)...
Presolve removed 112771 rows and 3482108 columns (presolve time = 75s)...
Presolve removed 112771 rows and 3482108 columns (presolve time = 80s)...
Presolve removed 112771 rows and 3482108 columns (presolve time = 85s)...
Presolve removed 112771 rows and 3482108 columns (presolve time = 90s)...
Presolve removed 112771 rows and 3482108 columns (presolve time = 95s)...
Presolve removed 112771 rows and 3482108 columns (presolve time = 100s)...
Presolve removed 112771 rows and 3482108 columns (presolve time = 105s)...
Presolve removed 112771 rows and 3482108 columns (presolve time = 110s)...
Presolve removed 112761 rows and 3482088 columns
Presolve time: 111.49s

Explored 0 nodes (0 simplex iterations) in 112.20 seconds (155.13 work units)
Thread count was 1 (of 20 available processors)

Solution count 0

Memory limit reached
Best objective -, best bound -, gap -
